
c This is a CNF SAT formula in the DIMACS CNF format,
c produced with the bc2cnf translator by Tommi Junttila;
c see http://users.ics.aalto.fi/tjunttil/circuits/index.html
c Z <-> 1
c S3 <-> 3
c S2 <-> 4
c S1 <-> 5
c S0 <-> 6
c OP0 <-> 11
c C0 <-> 14
c G2 <-> 16
c P2A3 <-> 17
c P3 <-> 18
c P2 <-> 19
c G0 <-> 21
c P0A1 <-> 22
c P1 <-> 23
c P0 <-> 24
c G_3 <-> 25
c P_3 <-> 26
c A3 <-> 27
c G_2 <-> 28
c P_2 <-> 29
c A2 <-> 30
c G_1 <-> 31
c P_1 <-> 32
c A1 <-> 33
c G_0 <-> 34
c P_0 <-> 35
c A0 <-> 36
c BINV_3 <-> 37
c B3 <-> 38
c BINV_2 <-> 39
c B2 <-> 40
c BINV_1 <-> 41
c B1 <-> 42
c BINV_0 <-> 43
c op0 <-> 44
c B0 <-> 45
p cnf 45 95
1 0
2 -3 0
2 7 0
-2 -7 3 0
-2 0
3 18 7 0
3 -18 -7 0
-3 18 -7 0
-3 -18 7 0
4 19 9 0
4 -19 -9 0
-4 19 -9 0
-4 -19 9 0
5 23 12 0
5 -23 -12 0
-5 23 -12 0
-5 -23 12 0
6 24 -11 0
6 -24 11 0
-6 24 11 0
-6 -24 -11 0
-7 -16 0
-7 -8 0
7 8 16 0
-8 -9 0
-8 19 0
8 -19 9 0
-9 -10 0
-9 20 0
9 -20 10 0
-10 11 0
-10 22 0
10 -22 -11 0
-12 -21 0
-12 -13 0
12 13 21 0
-13 14 0
-13 24 0
13 -24 -14 0
-15 16 0
-15 18 0
15 -18 -16 0
-17 18 0
-17 19 0
17 -19 -18 0
-20 21 0
-20 23 0
20 -23 -21 0
-22 23 0
-22 24 0
22 -24 -23 0
-25 27 0
-25 37 0
25 -37 -27 0
26 37 -27 0
26 -37 27 0
-26 37 27 0
-26 -37 -27 0
-28 30 0
-28 39 0
28 -39 -30 0
29 39 -30 0
29 -39 30 0
-29 39 30 0
-29 -39 -30 0
-31 33 0
-31 41 0
31 -41 -33 0
32 41 -33 0
32 -41 33 0
-32 41 33 0
-32 -41 -33 0
-34 36 0
-34 43 0
34 -43 -36 0
35 43 -36 0
35 -43 36 0
-35 43 36 0
-35 -43 -36 0
37 44 -38 0
37 -44 38 0
-37 44 38 0
-37 -44 -38 0
39 44 -40 0
39 -44 40 0
-39 44 40 0
-39 -44 -40 0
41 44 -42 0
41 -44 42 0
-41 44 42 0
-41 -44 -42 0
43 45 -44 0
43 -45 44 0
-43 45 44 0
-43 -45 -44 0
